experiments/sat_smt/run/sat-r+/results/priscilla.res
solved=true
solvingTime=92.79611968994140625
nActions=15