experiments/sat_smt/run/sat-r+/results/priscilla.out
Timesteps: 1
s UNSATISFIABLE
real 0.19
user 0.02
sys 0.00
Timesteps: 2
s UNSATISFIABLE
real 0.17
user 0.04
sys 0.00
Timesteps: 3
s UNSATISFIABLE
real 0.15
user 0.07
sys 0.01
Timesteps: 4
s UNSATISFIABLE
real 0.39
user 0.19
sys 0.00
Timesteps: 5
s UNSATISFIABLE
real 0.78
user 0.50
sys 0.01
Timesteps: 6
s UNSATISFIABLE
real 1.14
user 1.00
sys 0.01
Timesteps: 7
s UNSATISFIABLE
real 2.86
user 2.64
sys 0.02
Timesteps: 8
s UNSATISFIABLE
real 3.44
user 3.22
sys 0.01
Timesteps: 9
s UNSATISFIABLE
real 4.42
user 4.19
sys 0.02
Timesteps: 10
s UNSATISFIABLE
real 12.05
user 11.41
sys 0.04
Timesteps: 11
s UNSATISFIABLE
real 16.42
user 15.67
sys 0.05
Timesteps: 12
s UNSATISFIABLE
real 15.43
user 14.66
sys 0.04
Timesteps: 13
s UNSATISFIABLE
real 12.89
user 12.12
sys 0.04
Timesteps: 14
s UNSATISFIABLE
real 14.03
user 13.60
sys 0.05
Timesteps: 15
s SATISFIABLE
real 10.14
user 9.75
sys 0.04
